Version identifier: 22.1.0.0 | 2022-03-09 | 1a383f8ce
CPXPARAM_Threads                                 1
CPXPARAM_MIP_Strategy_VariableSelect             3
CPXPARAM_TimeLimit                               599.99998532899997
1 of 1 MIP starts provided solutions.
MIP start 'm1' defined initial solution with objective 1.0000.
Tried aggregator 1 time.
MIP Presolve eliminated 13 rows and 0 columns.
Reduced MIP has 2811 rows, 10000 columns, and 128480 nonzeros.
Reduced MIP has 10000 binaries, 0 generals, 0 SOSs, and 0 indicators.
Presolve time = 0.08 sec. (64.69 ticks)
Probing time = 0.01 sec. (8.59 ticks)
Tried aggregator 1 time.
Detecting symmetries...
Reduced MIP has 2811 rows, 10000 columns, and 128480 nonzeros.
Reduced MIP has 10000 binaries, 0 generals, 0 SOSs, and 0 indicators.
Presolve time = 0.10 sec. (73.99 ticks)
Probing time = 0.01 sec. (8.59 ticks)
Clique table members: 1596.
MIP emphasis: balance optimality and feasibility.
MIP search method: dynamic search.
Parallel mode: none, using 1 thread.
Root relaxation solution time = 2.32 sec. (2267.98 ticks)

        Nodes                                         Cuts/
   Node  Left     Objective  IInf  Best Integer    Best Bound    ItCnt     Gap

*     0+    0                            1.0000    10000.0000              --- 
      0     0      400.0000  1535        1.0000      400.0000     6543     --- 
*     0+    0                          165.0000      400.0000           142.42%
*     0+    0                          390.0000      400.0000             2.56%
      0     0        cutoff            390.0000      400.0000     6543    2.56%
Detecting symmetries...
      0     2      400.0000   196      390.0000      400.0000     6543    2.56%
Elapsed time = 28.39 sec. (28469.92 ticks, tree = 0.01 MB, solutions = 3)
      1     3      400.0000   337      390.0000      400.0000    18089    2.56%
      2     4      400.0000   407      390.0000      400.0000    23931    2.56%
      3     5      400.0000   407      390.0000      400.0000    28457    2.56%
      4     6      400.0000   344      390.0000      400.0000    28529    2.56%
      5     7      400.0000   269      390.0000      400.0000    30451    2.56%
      6     8      400.0000   270      390.0000      400.0000    30700    2.56%
      7     9      400.0000   315      390.0000      400.0000    40083    2.56%
      8    10      400.0000   256      390.0000      400.0000    43195    2.56%
      9    11      400.0000   277      390.0000      400.0000    43734    2.56%
     10    12      400.0000   258      390.0000      400.0000    45468    2.56%
Elapsed time = 47.57 sec. (47554.88 ticks, tree = 0.18 MB, solutions = 3)
     12    14      400.0000   286      390.0000      400.0000    48445    2.56%
     14    16      400.0000   415      390.0000      400.0000    55138    2.56%
     16    18      400.0000   276      390.0000      400.0000    55316    2.56%
     17    19      400.0000   326      390.0000      400.0000    58015    2.56%
     18    20      400.0000   254      390.0000      400.0000    60235    2.56%
     19    21      400.0000   427      390.0000      400.0000    66110    2.56%
     21    23      400.0000   251      390.0000      400.0000    67275    2.56%
     23    25      400.0000   322      390.0000      400.0000    70768    2.56%
     25    27      400.0000   236      390.0000      400.0000    71357    2.56%
     26    28      400.0000   246      390.0000      400.0000    73242    2.56%
Elapsed time = 66.77 sec. (66380.55 ticks, tree = 0.52 MB, solutions = 3)
     27    29      400.0000   247      390.0000      400.0000    74342    2.56%
     29    31      400.0000   240      390.0000      400.0000    74742    2.56%
     30    32      400.0000   273      390.0000      400.0000    78119    2.56%
     32    34      400.0000   258      390.0000      400.0000    79085    2.56%
     33    35      400.0000   257      390.0000      400.0000    82244    2.56%
     34    36      400.0000   218      390.0000      400.0000    85548    2.56%
     35    37      400.0000   285      390.0000      400.0000    89554    2.56%
     36    38      400.0000   171      390.0000      400.0000    95918    2.56%
     37    39      400.0000   219      390.0000      400.0000   104520    2.56%
     38    40      400.0000   180      390.0000      400.0000   106039    2.56%
Elapsed time = 86.93 sec. (86013.02 ticks, tree = 0.85 MB, solutions = 3)
     39    41      400.0000   198      390.0000      400.0000   107933    2.56%
     40    42      400.0000   202      390.0000      400.0000   109087    2.56%
     42    44      400.0000   230      390.0000      400.0000   112277    2.56%
     43    45      400.0000   162      390.0000      400.0000   117455    2.56%
     44    45      400.0000   259      390.0000      400.0000   122431    2.56%
     46    47      400.0000   162      390.0000      400.0000   124247    2.56%
     47    48      400.0000   203      390.0000      400.0000   126239    2.56%
     48    49      400.0000   221      390.0000      400.0000   129413    2.56%
     49    50      400.0000   228      390.0000      400.0000   130019    2.56%
     50    51      400.0000   201      390.0000      400.0000   136437    2.56%
Elapsed time = 116.13 sec. (114087.29 ticks, tree = 1.13 MB, solutions = 3)
     51    52      400.0000   212      390.0000      400.0000   139638    2.56%
     52    53      400.0000   226      390.0000      400.0000   143754    2.56%
     54    55      400.0000   198      390.0000      400.0000   147664    2.56%
     55    56      400.0000   192      390.0000      400.0000   149618    2.56%
     56    57      400.0000   243      390.0000      400.0000   151632    2.56%
     57    58      400.0000   331      390.0000      400.0000   153499    2.56%
     58    59      400.0000   284      390.0000      400.0000   158142    2.56%
     60    61      400.0000   267      390.0000      400.0000   158960    2.56%
     61    62      400.0000   483      390.0000      400.0000   163028    2.56%
     63    64      400.0000   261      390.0000      400.0000   163230    2.56%
Elapsed time = 133.92 sec. (131709.81 ticks, tree = 1.42 MB, solutions = 3)
     65    66      400.0000   242      390.0000      400.0000   166394    2.56%
     67    68      400.0000   175      390.0000      400.0000   170354    2.56%
     68    69      400.0000   152      390.0000      400.0000   180408    2.56%
     70    71      400.0000   182      390.0000      400.0000   184614    2.56%
     71    72      400.0000   356      390.0000      400.0000   191990    2.56%
     72    73      400.0000   236      390.0000      400.0000   196352    2.56%
     74    75      400.0000   177      390.0000      400.0000   197156    2.56%
     75    76      400.0000   184      390.0000      400.0000   202242    2.56%
     77    78      400.0000   171      390.0000      400.0000   207887    2.56%
     79    80      400.0000   143      390.0000      400.0000   208770    2.56%
Elapsed time = 159.74 sec. (157206.35 ticks, tree = 1.77 MB, solutions = 3)
     80    81      400.0000   152      390.0000      400.0000   210085    2.56%
     81    82      400.0000   453      390.0000      400.0000   216802    2.56%
     82    83      400.0000   408      390.0000      400.0000   222366    2.56%
     83    84      400.0000   147      390.0000      400.0000   226909    2.56%
     85    86      400.0000   188      390.0000      400.0000   228229    2.56%
     86    87      400.0000   322      390.0000      400.0000   231860    2.56%
     87    88      400.0000   266      390.0000      400.0000   233923    2.56%
     89    90      400.0000   188      390.0000      400.0000   234622    2.56%
     90    91      400.0000   278      390.0000      400.0000   238005    2.56%
     92    93      400.0000   192      390.0000      400.0000   238673    2.56%
Elapsed time = 178.61 sec. (175786.39 ticks, tree = 2.03 MB, solutions = 3)
     93    94      400.0000   522      390.0000      400.0000   242679    2.56%
     95    96      400.0000   171      390.0000      400.0000   243312    2.56%
     96    97      400.0000   164      390.0000      400.0000   246643    2.56%
     98    99      400.0000   207      390.0000      400.0000   251430    2.56%
     99   100      400.0000   448      390.0000      400.0000   253858    2.56%
    100   101      400.0000   189      390.0000      400.0000   255538    2.56%
    102   103      400.0000   459      390.0000      400.0000   261585    2.56%
    103   104      400.0000   444      390.0000      400.0000   265461    2.56%
    105   106      400.0000   199      390.0000      400.0000   267179    2.56%
    106   107      400.0000   310      390.0000      400.0000   273166    2.56%
Elapsed time = 200.41 sec. (196951.64 ticks, tree = 2.37 MB, solutions = 3)
    107   108      400.0000   185      390.0000      400.0000   276342    2.56%
    109   110      400.0000   187      390.0000      400.0000   279157    2.56%
    110   111      400.0000   190      390.0000      400.0000   280643    2.56%
    112   113      400.0000   366      390.0000      400.0000   284636    2.56%
    114   115      400.0000   254      390.0000      400.0000   286931    2.56%
    115   116      400.0000   477      390.0000      400.0000   290432    2.56%
    117   118      400.0000   234      390.0000      400.0000   290970    2.56%
    118   119      400.0000   267      390.0000      400.0000   294714    2.56%
    119   120      400.0000   292      390.0000      400.0000   298666    2.56%
    121   122      400.0000   201      390.0000      400.0000   299604    2.56%
Elapsed time = 219.20 sec. (215325.97 ticks, tree = 2.73 MB, solutions = 3)
    122   123      400.0000   479      390.0000      400.0000   303002    2.56%
    125   126      400.0000   308      390.0000      400.0000   305795    2.56%
    128   129      400.0000   194      390.0000      400.0000   306159    2.56%
    129   130      400.0000   206      390.0000      400.0000   308276    2.56%
    130   131      400.0000   187      390.0000      400.0000   308339    2.56%
    131   132      400.0000   140      390.0000      400.0000   311387    2.56%
    132   133      400.0000   338      390.0000      400.0000   312800    2.56%
    133   134      400.0000   294      390.0000      400.0000   314033    2.56%
    134   135      400.0000   472      390.0000      400.0000   318260    2.56%
    138   139      400.0000   209      390.0000      400.0000   323858    2.56%
Elapsed time = 248.55 sec. (243280.17 ticks, tree = 3.17 MB, solutions = 3)
    143   144      400.0000   365      390.0000      400.0000   329980    2.56%
    146   147      400.0000   199      390.0000      400.0000   337668    2.56%
    149   150      400.0000   199      390.0000      400.0000   344423    2.56%
    150   151      400.0000   244      390.0000      400.0000   352903    2.56%
    155   156      400.0000   274      390.0000      400.0000   368306    2.56%
    159   160      400.0000   357      390.0000      400.0000   374501    2.56%
    161   162      400.0000   192      390.0000      400.0000   382111    2.56%
    166   167      400.0000   214      390.0000      400.0000   386368    2.56%
    170   171      400.0000   127      390.0000      400.0000   394227    2.56%
    173   174      400.0000   407      390.0000      400.0000   402766    2.56%
Elapsed time = 297.60 sec. (290903.26 ticks, tree = 4.00 MB, solutions = 3)
    178   179      400.0000   214      390.0000      400.0000   408937    2.56%
    182   182      400.0000   204      390.0000      400.0000   413824    2.56%
    185   185      400.0000   506      390.0000      400.0000   421357    2.56%
    189   189      400.0000   234      390.0000      400.0000   428690    2.56%
    193   192      400.0000   226      390.0000      400.0000   434453    2.56%
    197   196      400.0000   272      390.0000      400.0000   443966    2.56%
    201   200      400.0000   201      390.0000      400.0000   451009    2.56%
    206   205      400.0000   407      390.0000      400.0000   458636    2.56%
    210   209      400.0000   164      390.0000      400.0000   464195    2.56%
    213   212      400.0000   340      390.0000      400.0000   471265    2.56%
Elapsed time = 344.86 sec. (336736.23 ticks, tree = 4.93 MB, solutions = 3)
    218   216      400.0000   165      390.0000      400.0000   476580    2.56%
    220   218      400.0000   341      390.0000      400.0000   481270    2.56%
    226   224      400.0000   405      390.0000      400.0000   487622    2.56%
    230   228      400.0000   431      390.0000      400.0000   494847    2.56%
    235   232      400.0000   378      390.0000      400.0000   500649    2.56%
    241   238      400.0000   342      390.0000      400.0000   506568    2.56%
    246   243      400.0000   488      390.0000      400.0000   514379    2.56%
    251   248      400.0000   421      390.0000      400.0000   521142    2.56%
    257   254      400.0000   334      390.0000      400.0000   525701    2.56%
    265   261      400.0000   323      390.0000      400.0000   531295    2.56%
Elapsed time = 392.15 sec. (381886.68 ticks, tree = 6.22 MB, solutions = 3)
    269   264      400.0000   463      390.0000      400.0000   537441    2.56%
    273   268      400.0000   335      390.0000      400.0000   544715    2.56%
    278   273      400.0000   315      390.0000      400.0000   549650    2.56%
    282   277      400.0000   568      390.0000      400.0000   558843    2.56%
    287   281      400.0000   532      390.0000      400.0000   565823    2.56%
    291   285      400.0000   224      390.0000      400.0000   573481    2.56%
    295   289      400.0000   211      390.0000      400.0000   580807    2.56%
    298   292      400.0000   557      390.0000      400.0000   588833    2.56%
    302   296      400.0000   357      390.0000      400.0000   595886    2.56%
    306   300      400.0000   308      390.0000      400.0000   603183    2.56%
Elapsed time = 436.72 sec. (423658.16 ticks, tree = 7.22 MB, solutions = 3)
    311   305      400.0000   499      390.0000      400.0000   614004    2.56%
    316   310      400.0000   359      390.0000      400.0000   621068    2.56%
    320   314      400.0000   258      390.0000      400.0000   626390    2.56%
    324   318      400.0000   357      390.0000      400.0000   638319    2.56%
    327   321      400.0000   345      390.0000      400.0000   652739    2.56%
    329   323      399.9480   566      390.0000      400.0000   666735    2.56%
    334   328      400.0000   274      390.0000      400.0000   677013    2.56%
    338   332      400.0000   245      390.0000      400.0000   687722    2.56%
    340   334      400.0000   254      390.0000      400.0000   697357    2.56%
    344   338      400.0000   241      390.0000      400.0000   708519    2.56%
Elapsed time = 500.32 sec. (480876.81 ticks, tree = 8.17 MB, solutions = 3)
    348   341      399.9469   453      390.0000      400.0000   722979    2.56%
    352   344      400.0000   190      390.0000      400.0000   729885    2.56%
    355   347      400.0000   137      390.0000      400.0000   740964    2.56%
    358   350      400.0000   188      390.0000      400.0000   756344    2.56%
    361   353      400.0000   223      390.0000      400.0000   769602    2.56%
    366   358      399.9734   339      390.0000      400.0000   781932    2.56%
    371   363      399.9734   310      390.0000      400.0000   792439    2.56%
    375   367      399.9734   337      390.0000      400.0000   807751    2.56%
    380   372      399.9734   393      390.0000      400.0000   818333    2.56%
    393   385      398.7500   141      390.0000      400.0000   830019    2.56%
Elapsed time = 552.34 sec. (527099.27 ticks, tree = 9.37 MB, solutions = 3)
Starting limited solution polishing.
*   400+  389                          395.0000      400.0000             1.27%
*   400+  389                          396.0000      400.0000             1.01%
    401   392      398.7500   106      396.0000      400.0000   835802    1.01%
    408   399      398.7500    73      396.0000      400.0000   844363    1.01%
    413   400    infeasible            396.0000      400.0000   858947    1.01%
*   420   380      integral     0      398.0000      400.0000   869929    0.50%
    429   385        cutoff            398.0000      400.0000   878662    0.50%
    447   392      399.9491   296      398.0000      400.0000   884759    0.50%
    463   400      399.9491   322      398.0000      400.0000   889872    0.50%
    482   404        cutoff            398.0000      400.0000   906671    0.50%
    500   416      399.9465   286      398.0000      400.0000   913448    0.50%

Root node processing (before b&c):
  Real time             =   28.27 sec. (28356.55 ticks)
Sequential b&c:
  Real time             =  571.73 sec. (540912.82 ticks)
                          ------------
Total (root+branch&cut) =  600.00 sec. (569269.37 ticks)
Primal:	398
Dual:	400
Status:	Feasible
Time:	600.02
Sequence:
	21
	1
	23
	5
	13
	11
	20
	1
	20
	9
	13
	7
	14
	9
	5
	12
	11
	21
	0
	20
	9
	14
	5
	17
	7
	20
	1
	23
	6
	14
	5
	23
	1
	20
	9
	12
	7
	23
	0
	21
	9
	12
	5
	24
	1
	20
	9
	12
	7
	14
	9
	20
	0
	21
	7
	16
	5
	12
	11
	13
	5
	18
	5
	20
	1
	20
	9
	14
	6
	16
	7
	5
	18
	5
	12
	7
	16
	8
	5
	16
	7
	20
	4
	20
	5
	18
	5
	21
	2
	20
	7
	16
	7
	20
	2
	21
	5
	18
	5
	20
	1
	23
	7
	12
	9
	15
	5
	23
	1
	20
	11
	13
	5
	23
	1
	21
	10
	12
	5
	20
	3
	21
	5
	16
	6
	21
	1
	23
	5
	13
	11
	20
	1
	23
	6
	12
	7
	16
	5
	21
	0
	21
	9
	12
	7
	16
	5
	5
	19
	7
	5
	12
	9
	22
	1
	16
	5
	20
	3
	21
	5
	12
	9
	20
	1
	21
	9
	12
	6
	23
	1
	21
	9
	13
	5
	18
	5
	20
	3
	20
	7
	16
	5
	21
	2
	20
	7
	16
	7
	12
	10
	20
	1
	21
	9
	12
	5
	16
	8
	20
	3
	20
	5
	12
	10
	21
	1
	20
	9
	12
	7
	23
	0
	20
	11
	14
	5
	23
	0
	21
	9
	12
	7
	23
	0
	20
	11
	14
	5
	23
	0
	21
	9
	14
	5
	23
	1
	20
	11
	13
	5
	23
	1
	21
	5
	16
	5
	7
	18
	5
	5
	16
	7
	21
	2
	20
	5
	18
	5
	15
	9
	20
	1
	23
	6
	12
	9
	21
	1
	23
	5
	13
	11
	7
	12
	5
	23
	0
	21
	11
	12
	5
	20
	3
	22
	5
	16
	5
	20
	3
	7
	13
	9
	12
	7
	23
	0
	21
	9
	12
	5
	19
	7
	12
	9
	20
	1
	22
	5
	12
	9
	21
	0
	21
	9
	12
	7
	16
	7
	5
	16
	7
	6
	18
	5
	12
	11
	12
	6
	23
	1
	21
	5
	16
	5
	13
	11
	12
	7
	23
	0
	20
	11
	14
	5
	16
	6
	20
	3
	20
	7
	13
	9
	20
	1
	20
	9
	14
	5
	16
	5
	22
	1
	20
	9
	12
	7
	23
	1
	20
	6
	18
	5
	14
	9
	20
	1
	23
	7
	12
	9
	8
	12
	9
	14
	5
	18
	6
	20
	3
	20
	7
	12
	6
	11
	12
	5
	21
